\ENCODING=ISO-8859-1
\Problem name: 

Minimize
 obj: W
Subject To
 c1:  x1_1 + x1_2  = 1
 c2:  x2_1 + x2_2  = 1
 c3:  x3_1 + x3_2  = 1
 c4:  y1 + y2  = 1
 c5:  - x1_1 + y1 >= 0
 c6:  - x1_2 + y2 >= 0
 c7:  - x2_1 + y1 >= 0
 c8:  - x2_2 + y2 >= 0
 c9:  - x3_1 + y1 >= 0
 c10: - x3_2 + y2 >= 0
 c11: 8 x1_1 + 9 x2_1 + 9 x3_1 <= 56
 c12: 8 x1_2 + 9 x2_2 + 9 x3_2 <= 63
 c13: - W + 16.0628827267555 x1_1 + 27.8424093485827 x1_2 <= 0
 c14: - W + 24.3853752565609 x2_1 + 22.5395131656817 x2_2 <= 0
 c15: - W + 27.0843014893845 x3_1 + 13.3712826876919 x3_2 <= 0
Bounds
 0 <= x1_1 <= 1
 0 <= x1_2 <= 1
 0 <= x2_1 <= 1
 0 <= x2_2 <= 1
 0 <= x3_1 <= 1
 0 <= x3_2 <= 1
 0 <= y1 <= 1
 0 <= y2 <= 1
Binaries
 x1_1  x1_2  x2_1  x2_2  x3_1  x3_2  y1  y2 
End
